p cnf 50 25
-31 22 -34 0
8 1 31 0
40 -34 -11 0
19 29 -3 0
15 -37 -50 0
-20 -50 -1 0
-15 -16 -7 0
-46 -3 -21 0
-50 -26 16 0
6 -11 -19 0
-6 10 44 0
49 -21 -11 0
-17 38 27 0
-42 -48 30 0
31 12 25 0
47 11 6 0
-28 -17 -15 0
-27 33 -3 0
-9 16 33 0
41 47 -24 0
5 32 -50 0
5 -34 -18 0
-20 -8 -45 0
26 2 17 0
-4 -26 15 0
